words_hard_train/8349.qaiger
aag 64 13 0 1 51
2
4
8
12
16
24
38
50
58
80
88
104
106
128
6 3 5
10 6 9
14 10 13
18 15 16
20 14 17
22 19 21
26 22 24
28 23 25
30 27 29
32 30 6
34 11 12
36 35 15
40 36 38
42 41 8
44 32 42
46 41 27
48 47 29
52 21 50
54 20 51
56 53 55
60 57 59
62 56 58
64 61 63
66 48 64
68 44 67
70 37 39
72 49 65
74 71 73
76 68 74
78 67 63
82 55 80
84 54 81
86 83 85
90 87 89
92 86 88
94 91 93
96 79 94
98 76 97
100 78 95
102 98 101
108 104 106
110 105 107
112 109 111
114 112 85
116 113 84
118 115 117
120 97 93
122 119 121
124 118 120
126 123 125
128 103 127
i0 2 y2[1]
i1 2 y2[2]
i2 2 y2[0]
i3 2 y2[3]
i4 2 y2[4]
i5 1 x1[1]
i6 1 x1[0]
i7 2 y2[5]
i8 1 x1[2]
i9 2 y2[6]
i10 1 x1[3]
i11 2 y2[7]
i12 1 x1[4]
o0 bv[0]
c
simplified
  <=
    add
      unary minus
        2 y2
      << 3
        1 x1
    invert
      1
