words_hard_train/8349.qaiger.qdimacs
p cnf 64 154
a 12 44 19 53 29 0
e 1 2 3 4 5 6 7 8 9 10 11 13 14 15 16 17 18 20 21 22 23 24 25 26 27 28 30 31 32 33 34 35 36 37 38 39 40 41 42 43 45 46 47 48 49 50 51 52 54 55 56 57 58 59 60 61 62 63 64 0
1 2 3 0
-1 -3 0
-2 -3 0
-3 4 5 0
3 -5 0
-4 -5 0
-5 6 7 0
5 -7 0
-6 -7 0
7 -8 9 0
-7 -9 0
8 -9 0
-7 8 10 0
7 -10 0
-8 -10 0
9 10 11 0
-9 -11 0
-10 -11 0
-11 -12 13 0
11 -13 0
12 -13 0
11 12 14 0
-11 -14 0
-12 -14 0
13 14 15 0
-13 -15 0
-14 -15 0
-15 -3 16 0
15 -16 0
3 -16 0
5 -6 17 0
-5 -17 0
6 -17 0
17 7 18 0
-17 -18 0
-7 -18 0
-18 -19 20 0
18 -20 0
19 -20 0
20 -4 21 0
-20 -21 0
4 -21 0
-16 -21 22 0
16 -22 0
21 -22 0
20 13 23 0
-20 -23 0
-13 -23 0
23 14 24 0
-23 -24 0
-14 -24 0
10 -25 26 0
-10 -26 0
25 -26 0
-10 25 27 0
10 -27 0
-25 -27 0
26 27 28 0
-26 -28 0
-27 -28 0
28 29 30 0
-28 -30 0
-29 -30 0
-28 -29 31 0
28 -31 0
29 -31 0
30 31 32 0
-30 -32 0
-31 -32 0
-24 -32 33 0
24 -33 0
32 -33 0
-22 33 34 0
22 -34 0
-33 -34 0
18 19 35 0
-18 -35 0
-19 -35 0
24 32 36 0
-24 -36 0
-32 -36 0
35 36 37 0
-35 -37 0
-36 -37 0
-34 -37 38 0
34 -38 0
37 -38 0
33 31 39 0
-33 -39 0
-31 -39 0
27 -40 41 0
-27 -41 0
40 -41 0
-27 40 42 0
27 -42 0
-40 -42 0
41 42 43 0
-41 -43 0
-42 -43 0
43 44 45 0
-43 -45 0
-44 -45 0
-43 -44 46 0
43 -46 0
44 -46 0
45 46 47 0
-45 -47 0
-46 -47 0
39 -47 48 0
-39 -48 0
47 -48 0
-38 48 49 0
38 -49 0
-48 -49 0
-39 47 50 0
39 -50 0
-47 -50 0
-49 50 51 0
49 -51 0
-50 -51 0
-52 -53 54 0
52 -54 0
53 -54 0
52 53 55 0
-52 -55 0
-53 -55 0
54 55 56 0
-54 -56 0
-55 -56 0
-56 42 57 0
56 -57 0
-42 -57 0
56 -42 58 0
-56 -58 0
42 -58 0
57 58 59 0
-57 -59 0
-58 -59 0
48 46 60 0
-48 -60 0
-46 -60 0
59 60 61 0
-59 -61 0
-60 -61 0
-59 -60 62 0
59 -62 0
60 -62 0
61 62 63 0
-61 -63 0
-62 -63 0
51 63 64 0
-51 -64 0
-63 -64 0
64 0
